
Welcome to IBM(R) ILOG(R) CPLEX(R) Interactive Optimizer 12.6.0.0
  with Simplex, Mixed Integer & Barrier Optimizers
5725-A06 5725-A29 5724-Y48 5724-Y49 5724-Y54 5724-Y55 5655-Y21
Copyright IBM Corp. 1988, 2013.  All Rights Reserved.

Type 'help' for a list of available commands.
Type 'help' followed by a command name for more
information on commands.

CPLEX> Problem 'fine_planning_binvar.lp' read.
Read time = 0.02 sec. (0.77 ticks)
CPLEX> Priority order 'fine_planning_binfix.ord' read.
CPLEX> New value for time limit in seconds: 600
CPLEX> Tried aggregator 2 times.
MIP Presolve eliminated 253 rows and 64 columns.
MIP Presolve modified 4972 coefficients.
Aggregator did 50 substitutions.
Reduced MIP has 4679 rows, 1764 columns, and 34458 nonzeros.
Reduced MIP has 1344 binaries, 0 generals, 0 SOSs, and 0 indicators.
Presolve time = 0.05 sec. (49.48 ticks)
Found incumbent of value 1713.150000 after 0.06 sec. (60.10 ticks)
Probing time = 0.01 sec. (8.04 ticks)
Tried aggregator 1 time.
Reduced MIP has 4679 rows, 1764 columns, and 34458 nonzeros.
Reduced MIP has 1344 binaries, 0 generals, 0 SOSs, and 0 indicators.
Presolve time = 0.01 sec. (14.17 ticks)
Probing time = 0.01 sec. (7.67 ticks)
Clique table members: 18995.
MIP emphasis: balance optimality and feasibility.
MIP search method: dynamic search.
Parallel mode: deterministic, using up to 8 threads.
Root relaxation solution time = 0.05 sec. (87.68 ticks)

        Nodes                                         Cuts/
   Node  Left     Objective  IInf  Best Integer    Best Bound    ItCnt     Gap

*     0+    0                         1713.1500        0.0000      608  100.00%
      0     0      892.9700   120     1713.1500      892.9700      608   47.88%
*     0+    0                         1710.8500      892.9700     1227   47.81%
      0     0      892.9700   273     1710.8500     Cuts: 841     1227   47.81%
*     0+    0                         1654.6300      892.9700     1444   46.03%
      0     0      892.9700   170     1654.6300     Cuts: 192     1444   46.03%
      0     0      892.9700    86     1654.6300     Cuts: 428     1773   46.03%
*     0+    0                         1653.1500      892.9700     1773   45.98%
*     0+    0                         1638.0900      892.9700     2079   45.49%
      0     0      892.9700   261     1638.0900     Cuts: 168     2079   45.49%
      0     2      892.9700    94     1638.0900      892.9700     2079   45.49%
Elapsed time = 1.17 sec. (1206.76 ticks, tree = 0.01 MB, solutions = 5)
*    23+   23                         1637.6800      892.9700     3100   45.47%
     44    46      892.9700    29     1637.6800      892.9700     3858   45.47%
*   199+  199                         1605.5500      892.9700     8457   44.38%
*   326+  326                         1582.9100      892.9700    13687   43.59%
    382   384     1378.2134    28     1582.9100      892.9700    16592   43.59%
    670   636      918.4818    53     1582.9100      892.9700    30253   43.59%
    995   929      950.7700    61     1582.9100      892.9700    47197   43.59%
*  1017+  941                         1562.8600      892.9700    47884   42.86%
   1331  1177      894.8976    64     1562.8600      892.9700    64355   42.86%
   1675  1472      892.9700    43     1562.8600      892.9700    83750   42.86%
   2048  1749      892.9700    50     1562.8600      892.9700   101973   42.86%
   2506  2123     1013.5100    41     1562.8600      892.9700   123773   42.86%
   3180  2680      892.9700    37     1562.8600      892.9700   147036   42.86%
   3414  2868      892.9700   162     1562.8600      892.9700   160523   42.86%
Elapsed time = 7.22 sec. (6343.36 ticks, tree = 34.73 MB, solutions = 10)
   3417  2869      892.9700   156     1562.8600      892.9700   161881   42.86%
   3422  2870      892.9700    96     1562.8600      892.9700   164571   42.86%
   3487  2910      892.9700    45     1562.8600      892.9700   172886   42.86%
   4493  3013      997.4409    27     1562.8600      892.9700   206194   42.86%
   6252  3472     1171.8302    64     1562.8600      892.9700   263730   42.86%
   7907  3949      976.8259    38     1562.8600      892.9700   315355   42.86%
   9505  4834     1115.3856    62     1562.8600      892.9700   366321   42.86%
  10847  5912      976.5917    26     1562.8600      892.9700   413587   42.86%
  12164  6990      892.9700    95     1562.8600      892.9700   461366   42.86%
  12646  7389      892.9700   177     1562.8600      892.9700   481887   42.86%
Elapsed time = 20.36 sec. (16472.00 ticks, tree = 360.70 MB, solutions = 10)
  13695  8257      893.5600    46     1562.8600      892.9700   523931   42.86%
* 13835+ 8367                         1557.3500      892.9700   531711   42.66%
  14044  8544     1212.4405    16     1557.3500      892.9700   539540   42.66%
  15461  9673      892.9700    93     1557.3500      892.9700   598452   42.66%
  16653 10635      925.8265   202     1557.3500      892.9700   647016   42.66%
  17724 11496      892.9700   250     1557.3500      892.9700   691246   42.66%
  18370 12039      993.7248    24     1557.3500      892.9700   721995   42.66%
  19865 13241      892.9700   173     1557.3500      892.9700   780487   42.66%
  20678 13894     1044.9689    66     1557.3500      892.9700   811858   42.66%
  21859 14828      892.9700   374     1557.3500      892.9700   857632   42.66%
  22749 15544      928.6131    34     1557.3500      892.9700   901034   42.66%
Elapsed time = 34.83 sec. (27165.29 ticks, tree = 974.50 MB, solutions = 11)
  23665 16260      892.9700    40     1557.3500      892.9700   942340   42.66%
  23980 16524      905.6053    81     1557.3500      892.9700   953955   42.66%
  25478 17673      894.9497    84     1557.3500      892.9700  1017540   42.66%
  26177 18212      896.3641   195     1557.3500      892.9700  1048541   42.66%
  26985 18862      892.9900   213     1557.3500      892.9700  1089854   42.66%
  28133 19757      893.7683   128     1557.3500      892.9700  1135881   42.66%
  29300 20693      931.5965    61     1557.3500      892.9700  1177032   42.66%
  30584 21724      892.9700    57     1557.3500      892.9700  1223044   42.66%
  31160 22209      892.9700   194     1557.3500      892.9700  1254232   42.66%
  32207 23066      950.4421    54     1557.3500      892.9700  1300520   42.66%
Elapsed time = 49.62 sec. (38466.43 ticks, tree = 1509.94 MB, solutions = 11)
  33153 23787      903.1682    27     1557.3500      892.9700  1343694   42.66%
  34219 24647      903.2621   177     1557.3500      892.9700  1389673   42.66%
  35315 25527      955.6483   141     1557.3500      892.9700  1440132   42.66%
* 35549+25714                         1543.3500      892.9700  1448418   42.14%
  35549 25716     1025.9702    23     1543.3500      892.9700  1448418   42.14%
* 35550+25715                         1542.9000      892.9700  1448432   42.12%
  35550 25715        cutoff           1542.9000      892.9700  1448432   42.12%
* 35552+25715                         1542.9000      892.9700  1448463   42.12%
  36416 26390      942.3958    81     1542.9000      892.9700  1492237   42.12%
  37148 26968      892.9700   105     1542.9000      892.9700  1531186   42.12%
  38041 27708      892.9700   211     1542.9000      892.9700  1576942   42.12%
  38925 28438     1079.3126   189     1542.9000      892.9700  1612448   42.12%
  39636 28969      917.3688   157     1542.9000      892.9700  1648847   42.12%
Elapsed time = 67.87 sec. (52254.57 ticks, tree = 1965.90 MB, solutions = 16)
  40596 29725     1000.4894    37     1542.9000      892.9700  1695126   42.12%
  41599 30543      897.1589    27     1542.9000      892.9700  1742707   42.12%
  42368 31186      892.9700   298     1542.9000      892.9700  1777913   42.12%
  43378 31975      893.4949    84     1542.9000      892.9700  1818908   42.12%
  44324 32732     1337.8151    14     1542.9000      892.9700  1851530   42.12%
  45500 33664     1014.0625    86     1542.9000      892.9700  1890199   42.12%
  46748 34651      933.9412   188     1542.9000      892.9700  1936756   42.12%
  47526 35261      899.1970    48     1542.9000      892.9700  1969475   42.12%
  48878 36343      951.6055   216     1542.9000      892.9700  2020756   42.12%
  49901 37172      892.9700   104     1542.9000      892.9700  2054960   42.12%
Elapsed time = 86.51 sec. (61877.77 ticks, tree = 2402.80 MB, solutions = 16)
Nodefile size = 341.37 MB (215.52 MB after compression)
  50359 37537      892.9700   419     1542.9000      892.9700  2077209   42.12%
  50587 37735      940.7539    35     1542.9000      892.9700  2089471   42.12%
  51887 38823      892.9700    52     1542.9000      892.9700  2131814   42.12%
  53168 39858      893.3806   214     1542.9000      892.9700  2164903   42.12%
  54862 41179      903.3091   348     1542.9000      892.9700  2209167   42.12%
  55713 41861      940.1405   190     1542.9000      892.9700  2231520   42.12%
  56940 42858      982.0883    26     1542.9000      892.9700  2265990   42.12%
* 57766 43527      integral     0     1541.9400      892.9700  2288277   42.09%
  58728 44302      895.2775   112     1541.9400      892.9700  2314330   42.09%
  59910 45268     1394.5568    41     1541.9400      892.9700  2344936   42.09%
Elapsed time = 109.72 sec. (71589.76 ticks, tree = 3107.24 MB, solutions = 17)
Nodefile size = 1045.03 MB (656.81 MB after compression)
  60046 45384     1145.6762    18     1541.9400      892.9700  2349320   42.09%
* 60066+45402                         1538.4300      892.9700  2349831   41.96%
  61147 46281      892.9700    99     1538.4300      892.9700  2383085   41.96%
  62673 47524      903.1767    24     1538.4300      892.9700  2426372   41.96%
  62961 47774     1034.6709    25     1538.4300      892.9700  2437977   41.96%
  64079 48689      892.9700   198     1538.4300      892.9700  2479863   41.96%
  65311 49716      892.9700   268     1538.4300      892.9700  2519817   41.96%
* 66374+50562                         1537.8300      892.9700  2550798   41.93%
  66608 50760      911.4498    26     1537.8300      892.9700  2557279   41.93%
  67915 51813     1008.4900    23     1537.8300      892.9700  2591894   41.93%
  69321 52997      993.3150    23     1537.8300      892.9700  2638063   41.93%
  70188 53754      892.9700   238     1537.8300      892.9700  2672491   41.93%
Elapsed time = 137.49 sec. (82838.66 ticks, tree = 3898.38 MB, solutions = 21)
Nodefile size = 1834.67 MB (1153.16 MB after compression)
  71296 54719      892.9700   283     1537.8300      892.9700  2713017   41.93%
  72269 55546     1027.7920    54     1537.8300      892.9700  2745241   41.93%
  73205 56319      896.5325   174     1537.8300      892.9700  2776976   41.93%
  74405 57330      902.1871   239     1537.8300      892.9700  2812417   41.93%
  76020 58651     1023.3892    22     1537.8300      892.9700  2857671   41.93%
  76058 58689      966.0600    77     1537.8300      892.9700  2858995   41.93%
  77738 60029     1000.5593    21     1537.8300      892.9700  2899563   41.93%
  78696 60774     1038.6803    27     1537.8300      892.9700  2925780   41.93%
  79492 61431      907.5649    25     1537.8300      892.9700  2952982   41.93%
  80654 62391      892.9700   111     1537.8300      892.9700  2986646   41.93%
Elapsed time = 165.75 sec. (93689.85 ticks, tree = 4720.95 MB, solutions = 21)
Nodefile size = 2656.99 MB (1674.35 MB after compression)
  82212 63659      892.9700   169     1537.8300      892.9700  3025313   41.93%
  82771 64129     1003.2419    22     1537.8300      892.9700  3045326   41.93%
  83667 64882      931.9607    28     1537.8300      892.9700  3079706   41.93%
  84624 65686      902.4383   280     1537.8300      892.9700  3108159   41.93%
  85880 66721     1092.5767    20     1537.8300      892.9700  3149697   41.93%
  86865 67579      904.9299    23     1537.8300      892.9700  3189850   41.93%
  87596 68193      892.9700   348     1537.8300      892.9700  3208202   41.93%
  89133 69465     1141.8295    21     1537.8300      892.9700  3246486   41.93%
  90177 70294      892.9700    97     1537.8300      892.9700  3273971   41.93%
  94768 74034     1266.3607    20     1537.8300      892.9700  3402621   41.93%
Elapsed time = 201.12 sec. (106716.52 ticks, tree = 5829.48 MB, solutions = 21)
Nodefile size = 3761.66 MB (2402.86 MB after compression)
  98902 77421      948.0013    36     1537.8300      892.9700  3511100   41.93%
 103365 81118      901.4900    23     1537.8300      892.9700  3643647   41.93%
*104856+82326                         1537.0200      892.9700  3680896   41.90%
 106962 84056      958.9839    31     1537.0200      892.9700  3734092   41.90%
 111504 87743      912.4024   152     1537.0200      892.9700  3859202   41.90%
 115826 91282     1017.7700   116     1537.0200      892.9700  3986835   41.90%
 119427 94220     1038.0822    22     1537.0200      892.9700  4088799   41.90%
 123426 97485      933.5200   125     1537.0200      892.9700  4179370   41.90%
 127837 101024      892.9700   130     1537.0200      892.9700  4294396   41.90%
 132925 105142      912.5307    80     1537.0200      892.9700  4422024   41.90%
 137833 109094      892.9700    31     1537.0200      892.9700  4538265   41.90%
Elapsed time = 308.11 sec. (145321.20 ticks, tree = 9267.82 MB, solutions = 22)
Nodefile size = 7200.32 MB (4630.32 MB after compression)
 143015 113374      892.9700   295     1537.0200      892.9700  4680896   41.90%
 147501 117028     1100.1317    21     1537.0200      892.9700  4798442   41.90%
 151731 120486      935.0290    29     1537.0200      892.9700  4913712   41.90%
 156228 124193     1162.1433    23     1537.0200      892.9700  5040774   41.90%
 158399 126015      915.1348   157     1537.0200      892.9700  5105469   41.90%
 162413 129335      892.9700    87     1537.0200      892.9700  5231694   41.90%
 166294 132565      897.1200    26     1537.0200      892.9700  5360373   41.90%
 170693 136170      900.7006    25     1537.0200      892.9700  5480019   41.90%
 175214 139875      895.3450    76     1537.0200      892.9700  5603545   41.90%
 179706 143522     1046.2933    25     1537.0200      892.9700  5722527   41.90%
Elapsed time = 413.13 sec. (183705.62 ticks, tree = 12584.99 MB, solutions = 22)
Nodefile size = 10506.30 MB (6791.87 MB after compression)
 184804 147651     1056.7694    20     1537.0200      892.9700  5852059   41.90%
 188988 151081      895.1600   139     1537.0200      892.9700  5974018   41.90%
 194280 155350      893.0811   336     1537.0200      892.9700  6128526   41.90%
 198118 158476      892.9700    26     1537.0200      892.9700  6252354   41.90%
*199215+159389                         1536.6900      892.9700  6284199   41.89%
 200468 160432     1056.5611    24     1536.6900      892.9700  6324729   41.89%
 203317 162862     1013.5276    22     1536.6900      892.9700  6429557   41.89%
 206000 165066      899.7844   175     1536.6900      892.9700  6525080   41.89%
 209490 167916     1078.4533    26     1536.6900      892.9700  6655074   41.89%
 211591 169679      892.9700   330     1536.6900      892.9700  6730229   41.89%
 215324 172759      905.0666    68     1536.6900      892.9700  6846877   41.89%
Elapsed time = 510.51 sec. (222943.79 ticks, tree = 15478.93 MB, solutions = 23)
Nodefile size = 13411.26 MB (8789.28 MB after compression)
 218894 175738      896.5852   338     1536.6900      892.9700  6968826   41.89%
 223423 179396      896.4900    24     1536.6900      892.9700  7105946   41.89%
 227551 182779      910.5826   109     1536.6900      892.9700  7215435   41.89%
 231612 186126      892.9700   222     1536.6900      892.9700  7323947   41.89%
 235289 189153      993.5853    23     1536.6900      892.9700  7453492   41.89%
 237890 191298     1213.9130    20     1536.6900      892.9700  7540796   41.89%
 241345 194109      908.5522   177     1536.6900      892.9700  7649943   41.89%
 244824 196905      909.3900    22     1536.6900      892.9700  7750983   41.89%
 246751 198518      906.4904    30     1536.6900      892.9700  7809679   41.89%

GUB cover cuts applied:  164
Clique cuts applied:  92
Cover cuts applied:  3262
Implied bound cuts applied:  4
Flow cuts applied:  311
Mixed integer rounding cuts applied:  235
Zero-half cuts applied:  143
Gomory fractional cuts applied:  1

Root node processing (before b&c):
  Real time             =    1.16 sec. (1187.28 ticks)
Parallel b&c, 8 threads:
  Real time             =  601.55 sec. (258411.11 ticks)
  Sync time (average)   =   22.50 sec.
  Wait time (average)   =    0.01 sec.
                          ------------
Total (root+branch&cut) =  602.71 sec. (259598.39 ticks)

Solution pool: 23 solutions saved.

MIP - Time limit exceeded, integer feasible:  Objective =  1.5366900000e+03
Current MIP best bound =  8.9297000000e+02 (gap = 643.72, 41.89%)
Solution time =  602.71 sec.  Iterations = 7832010  Nodes = 247373 (199019)
Deterministic time = 259598.40 ticks  (430.72 ticks/sec)

CPLEX> Incumbent solution
Variable Name           Solution Value
overlay#1#7                  32.000000
overlay#2#13                 14.000000
overlay#3#17                 -0.000000
overlay#3#19                 57.000000
overlay#4#6                  78.000000
overlay#5#1                  32.000000
overlay#5#6                  22.000000
overlay#5#8                  12.000000
overlay#6#7                  13.000000
overlay#6#12                 87.000000
overlay#7#3                  56.000000
overlay#8#7                  11.000000
overlay#9#4                  20.000000
overlay#9#5                  32.000000
overlay#10#14                75.000000
overlay#11#14                14.000000
overlay#11#18                16.000000
overlay#11#22                 3.000000
overlay#12#2                 14.000000
overlay#12#3                  1.000000
overlay#12#20                73.000000
overlay#13#10                16.000000
overlay#13#11                33.000000
overlay#13#21                36.000000
overlay#14#9                 52.000000
overlay#14#15                 3.000000
overlay#14#16                34.000000
overlay#15#4                 46.000000
overlay#16#5                 34.000000
overlay#17#4                 12.000000
overlay#18#15                40.000000
overlay#18#17                12.000000
overlay#19#10                59.000000
overlay#20#13                71.000000
overlay#20#19                 2.000000
overlay#21#18                36.000000
overlay#22#15                 3.000000
binpos#6#1                    1.000000
binpos#5#2                    1.000000
binpos#3#3                    1.000000
binpos#7#4                    1.000000
binpos#4#5                    1.000000
binpos#8#6                    1.000000
binpos#2#7                    1.000000
binpos#1#8                    1.000000
next#1#6#8                    1.000000
next#2#1#7                    1.000000
next#3#7#3                    1.000000
next#4#8#5                    1.000000
next#5#3#2                    1.000000
next#6#5#1                    1.000000
next#7#4#4                    1.000000
next#8#2#6                    1.000000
before#6#1                    1.000000
before#1#8                    1.000000
before#2#3                    1.000000
before#2#20                   1.000000
before#20#3                   1.000000
before#4#5                    1.000000
before#6#8                    1.000000
before#12#7                   1.000000
before#15#9                   1.000000
before#9#16                   1.000000
before#17#9                   1.000000
before#11#10                  1.000000
before#21#10                  1.000000
before#21#11                  1.000000
before#13#19                  1.000000
before#18#14                  1.000000
before#22#14                  1.000000
before#15#16                  1.000000
before#17#15                  1.000000
before#17#16                  1.000000
before#18#22                  1.000000
y#1#16                        1.000000
y#2#1                         1.000000
y#2#4                         1.000000
y#2#5                         1.000000
y#2#6                         1.000000
y#2#7                         1.000000
y#2#8                         1.000000
y#2#9                         1.000000
y#2#10                        1.000000
y#2#11                        1.000000
y#2#12                        1.000000
y#2#13                        1.000000
y#2#14                        1.000000
y#2#15                        1.000000
y#2#16                        1.000000
y#2#17                        1.000000
y#2#18                        1.000000
y#2#19                        1.000000
y#2#21                        1.000000
y#2#22                        1.000000
y#3#1                         1.000000
y#3#7                         1.000000
y#3#8                         1.000000
y#3#16                        1.000000
y#4#1                         1.000000
y#4#2                         1.000000
y#4#3                         1.000000
y#4#6                         1.000000
y#4#7                         1.000000
y#4#8                         1.000000
y#4#9                         1.000000
y#4#10                        1.000000
y#4#11                        1.000000
y#4#12                        1.000000
y#4#13                        1.000000
y#4#14                        1.000000
y#4#15                        1.000000
y#4#16                        1.000000
y#4#17                        1.000000
y#4#18                        1.000000
y#4#19                        1.000000
y#4#20                        1.000000
y#4#21                        1.000000
y#4#22                        1.000000
y#5#1                         1.000000
y#5#3                         1.000000
y#5#7                         1.000000
y#5#8                         1.000000
y#5#16                        1.000000
y#5#19                        1.000000
y#6#2                         1.000000
y#6#3                         1.000000
y#6#4                         1.000000
y#6#5                         1.000000
y#6#7                         1.000000
y#6#9                         1.000000
y#6#10                        1.000000
y#6#11                        1.000000
y#6#13                        1.000000
y#6#14                        1.000000
y#6#15                        1.000000
y#6#16                        1.000000
y#6#17                        1.000000
y#6#18                        1.000000
y#6#19                        1.000000
y#6#20                        1.000000
y#6#21                        1.000000
y#6#22                        1.000000
y#7#1                         1.000000
y#7#8                         1.000000
y#7#16                        1.000000
y#9#1                         1.000000
y#9#3                         1.000000
y#9#5                         1.000000
y#9#7                         1.000000
y#9#8                         1.000000
y#9#10                        1.000000
y#9#19                        1.000000
y#10#1                        1.000000
y#10#3                        1.000000
y#10#5                        1.000000
y#10#7                        1.000000
y#10#8                        1.000000
y#10#16                       1.000000
y#10#19                       1.000000
y#11#1                        1.000000
y#11#3                        1.000000
y#11#5                        1.000000
y#11#7                        1.000000
y#11#8                        1.000000
y#11#9                        1.000000
y#11#14                       1.000000
y#11#16                       1.000000
y#11#19                       1.000000
y#11#22                       1.000000
y#12#1                        1.000000
y#12#2                        1.000000
y#12#3                        1.000000
y#12#4                        1.000000
y#12#5                        1.000000
y#12#6                        1.000000
y#12#8                        1.000000
y#12#9                        1.000000
y#12#10                       1.000000
y#12#11                       1.000000
y#12#13                       1.000000
y#12#14                       1.000000
y#12#15                       1.000000
y#12#16                       1.000000
y#12#17                       1.000000
y#12#18                       1.000000
y#12#19                       1.000000
y#12#20                       1.000000
y#12#21                       1.000000
y#12#22                       1.000000
y#13#1                        1.000000
y#13#2                        1.000000
y#13#3                        1.000000
y#13#4                        1.000000
y#13#5                        1.000000
y#13#6                        1.000000
y#13#7                        1.000000
y#13#8                        1.000000
y#13#9                        1.000000
y#13#10                       1.000000
y#13#11                       1.000000
y#13#12                       1.000000
y#13#14                       1.000000
y#13#15                       1.000000
y#13#16                       1.000000
y#13#17                       1.000000
y#13#18                       1.000000
y#13#20                       1.000000
y#13#21                       1.000000
y#13#22                       1.000000
y#14#1                        1.000000
y#14#3                        1.000000
y#14#5                        1.000000
y#14#7                        1.000000
y#14#8                        1.000000
y#14#9                        1.000000
y#14#10                       1.000000
y#14#16                       1.000000
y#14#19                       1.000000
y#15#1                        1.000000
y#15#3                        1.000000
y#15#5                        1.000000
y#15#7                        1.000000
y#15#8                        1.000000
y#15#10                       1.000000
y#15#11                       1.000000
y#15#14                       1.000000
y#15#19                       1.000000
y#15#20                       1.000000
y#15#22                       1.000000
y#16#8                        1.000000
y#17#1                        1.000000
y#17#2                        1.000000
y#17#3                        1.000000
y#17#4                        1.000000
y#17#5                        1.000000
y#17#6                        1.000000
y#17#7                        1.000000
y#17#8                        1.000000
y#17#10                       1.000000
y#17#11                       1.000000
y#17#12                       1.000000
y#17#13                       1.000000
y#17#14                       1.000000
y#17#18                       1.000000
y#17#19                       1.000000
y#17#20                       1.000000
y#17#21                       1.000000
y#17#22                       1.000000
y#18#1                        1.000000
y#18#2                        1.000000
y#18#3                        1.000000
y#18#4                        1.000000
y#18#5                        1.000000
y#18#6                        1.000000
y#18#7                        1.000000
y#18#8                        1.000000
y#18#9                        1.000000
y#18#10                       1.000000
y#18#11                       1.000000
y#18#12                       1.000000
y#18#13                       1.000000
y#18#15                       1.000000
y#18#16                       1.000000
y#18#17                       1.000000
y#18#19                       1.000000
y#18#20                       1.000000
y#18#21                       1.000000
y#19#1                        1.000000
y#19#3                        1.000000
y#19#7                        1.000000
y#19#8                        1.000000
y#19#16                       1.000000
y#20#1                        1.000000
y#20#5                        1.000000
y#20#7                        1.000000
y#20#8                        1.000000
y#20#9                        1.000000
y#20#10                       1.000000
y#20#11                       1.000000
y#20#14                       1.000000
y#20#16                       1.000000
y#20#19                       1.000000
y#20#22                       1.000000
y#21#1                        1.000000
y#21#2                        1.000000
y#21#3                        1.000000
y#21#4                        1.000000
y#21#5                        1.000000
y#21#6                        1.000000
y#21#7                        1.000000
y#21#8                        1.000000
y#21#9                        1.000000
y#21#12                       1.000000
y#21#13                       1.000000
y#21#14                       1.000000
y#21#15                       1.000000
y#21#16                       1.000000
y#21#17                       1.000000
y#21#18                       1.000000
y#21#19                       1.000000
y#21#20                       1.000000
y#21#22                       1.000000
y#22#1                        1.000000
y#22#3                        1.000000
y#22#5                        1.000000
y#22#7                        1.000000
y#22#8                        1.000000
y#22#9                        1.000000
y#22#10                       1.000000
y#22#16                       1.000000
y#22#19                       1.000000
z#1#2                         1.000000
z#1#4                         1.000000
z#1#9                         1.000000
z#1#11                        1.000000
z#1#12                        1.000000
z#1#13                        1.000000
z#1#15                        1.000000
z#1#17                        1.000000
z#1#18                        1.000000
z#1#20                        1.000000
z#1#21                        1.000000
z#1#22                        1.000000
z#2#17                        1.000000
z#3#1                         1.000000
z#3#4                         1.000000
z#3#5                         1.000000
z#3#6                         1.000000
z#3#7                         1.000000
z#3#8                         1.000000
z#3#9                         1.000000
z#3#10                        1.000000
z#3#11                        1.000000
z#3#12                        1.000000
z#3#13                        1.000000
z#3#14                        1.000000
z#3#15                        1.000000
z#3#16                        1.000000
z#3#17                        1.000000
z#3#18                        1.000000
z#3#19                        1.000000
z#3#21                        1.000000
z#3#22                        1.000000
z#4#2                         1.000000
z#4#11                        1.000000
z#4#15                        1.000000
z#4#17                        1.000000
z#4#18                        1.000000
z#4#21                        1.000000
z#4#22                        1.000000
z#5#1                         1.000000
z#5#2                         1.000000
z#5#3                         1.000000
z#5#6                         1.000000
z#5#7                         1.000000
z#5#8                         1.000000
z#5#9                         1.000000
z#5#10                        1.000000
z#5#11                        1.000000
z#5#12                        1.000000
z#5#13                        1.000000
z#5#14                        1.000000
z#5#15                        1.000000
z#5#16                        1.000000
z#5#17                        1.000000
z#5#18                        1.000000
z#5#19                        1.000000
z#5#20                        1.000000
z#5#21                        1.000000
z#5#22                        1.000000
z#6#2                         1.000000
z#6#4                         1.000000
z#6#11                        1.000000
z#6#12                        1.000000
z#6#13                        1.000000
z#6#15                        1.000000
z#6#17                        1.000000
z#6#18                        1.000000
z#6#20                        1.000000
z#6#21                        1.000000
z#6#22                        1.000000
z#7#1                         1.000000
z#7#2                         1.000000
z#7#3                         1.000000
z#7#4                         1.000000
z#7#5                         1.000000
z#7#6                         1.000000
z#7#8                         1.000000
z#7#9                         1.000000
z#7#10                        1.000000
z#7#11                        1.000000
z#7#13                        1.000000
z#7#14                        1.000000
z#7#15                        1.000000
z#7#16                        1.000000
z#7#17                        1.000000
z#7#18                        1.000000
z#7#19                        1.000000
z#7#20                        1.000000
z#7#21                        1.000000
z#7#22                        1.000000
z#8#2                         1.000000
z#8#3                         1.000000
z#8#4                         1.000000
z#8#5                         1.000000
z#8#7                         1.000000
z#8#9                         1.000000
z#8#10                        1.000000
z#8#11                        1.000000
z#8#12                        1.000000
z#8#13                        1.000000
z#8#14                        1.000000
z#8#15                        1.000000
z#8#16                        1.000000
z#8#17                        1.000000
z#8#18                        1.000000
z#8#19                        1.000000
z#8#20                        1.000000
z#8#21                        1.000000
z#8#22                        1.000000
z#9#2                         1.000000
z#9#4                         1.000000
z#9#6                         1.000000
z#9#11                        1.000000
z#9#12                        1.000000
z#9#13                        1.000000
z#9#18                        1.000000
z#9#20                        1.000000
z#9#21                        1.000000
z#9#22                        1.000000
z#10#1                        1.000000
z#10#2                        1.000000
z#10#3                        1.000000
z#10#4                        1.000000
z#10#5                        1.000000
z#10#6                        1.000000
z#10#7                        1.000000
z#10#8                        1.000000
z#10#9                        1.000000
z#10#12                       1.000000
z#10#13                       1.000000
z#10#14                       1.000000
z#10#15                       1.000000
z#10#16                       1.000000
z#10#17                       1.000000
z#10#18                       1.000000
z#10#19                       1.000000
z#10#20                       1.000000
z#10#22                       1.000000
z#11#2                        1.000000
z#11#15                       1.000000
z#11#17                       1.000000
z#11#18                       1.000000
z#11#22                       1.000000
z#12#2                        1.000000
z#12#4                        1.000000
z#12#11                       1.000000
z#12#13                       1.000000
z#12#15                       1.000000
z#12#17                       1.000000
z#12#18                       1.000000
z#12#20                       1.000000
z#12#21                       1.000000
z#12#22                       1.000000
z#13#2                        1.000000
z#13#4                        1.000000
z#13#11                       1.000000
z#13#15                       1.000000
z#13#17                       1.000000
z#13#18                       1.000000
z#13#21                       1.000000
z#13#22                       1.000000
z#14#1                        1.000000
z#14#2                        1.000000
z#14#3                        1.000000
z#14#4                        1.000000
z#14#5                        1.000000
z#14#6                        1.000000
z#14#7                        1.000000
z#14#8                        1.000000
z#14#9                        1.000000
z#14#10                       1.000000
z#14#11                       1.000000
z#14#12                       1.000000
z#14#13                       1.000000
z#14#15                       1.000000
z#14#16                       1.000000
z#14#17                       1.000000
z#14#19                       1.000000
z#14#20                       1.000000
z#14#21                       1.000000
z#15#2                        1.000000
z#15#18                       1.000000
z#15#21                       1.000000
z#15#22                       1.000000
z#16#1                        1.000000
z#16#2                        1.000000
z#16#3                        1.000000
z#16#4                        1.000000
z#16#5                        1.000000
z#16#6                        1.000000
z#16#7                        1.000000
z#16#8                        1.000000
z#16#10                       1.000000
z#16#11                       1.000000
z#16#12                       1.000000
z#16#13                       1.000000
z#16#14                       1.000000
z#16#18                       1.000000
z#16#19                       1.000000
z#16#20                       1.000000
z#16#21                       1.000000
z#16#22                       1.000000
z#18#2                        1.000000
z#18#17                       1.000000
z#18#21                       1.000000
z#19#1                        1.000000
z#19#2                        1.000000
z#19#3                        1.000000
z#19#4                        1.000000
z#19#5                        1.000000
z#19#6                        1.000000
z#19#7                        1.000000
z#19#8                        1.000000
z#19#9                        1.000000
z#19#10                       1.000000
z#19#11                       1.000000
z#19#12                       1.000000
z#19#14                       1.000000
z#19#15                       1.000000
z#19#16                       1.000000
z#19#17                       1.000000
z#19#18                       1.000000
z#19#20                       1.000000
z#19#21                       1.000000
z#19#22                       1.000000
z#20#4                        1.000000
z#20#11                       1.000000
z#20#13                       1.000000
z#20#15                       1.000000
z#20#17                       1.000000
z#20#18                       1.000000
z#20#21                       1.000000
z#20#22                       1.000000
z#21#2                        1.000000
z#21#17                       1.000000
z#22#2                        1.000000
z#22#17                       1.000000
z#22#21                       1.000000
All other variables matching '*' are 0.
CPLEX> 